p tw 20 53
0 1
0 14
0 16
0 7
0 10
0 9
0 18
0 8
0 3
1 13
1 4
1 15
1 10
1 18
2 3
2 8
2 13
2 12
2 10
2 16
3 11
3 14
3 4
3 7
3 15
3 19
3 12
3 13
4 5
4 6
5 10
5 11
5 12
6 7
6 10
6 19
7 9
7 10
7 15
7 14
7 17
7 12
9 11
9 12
10 15
10 12
10 19
11 12
11 16
12 13
12 17
12 14
13 15
